proyfinal/src/viki/013/experimentInOfficeAgust.take6.output/e93355d5-06b3-43dd-ae79-1ed6c140f196.als.dat
{'cnf.clauses': '118081',
 'cnf.totvars': '69608',
 'conflict literals': '79',
 'conflicts': '37',
 'decisions': '3172',
 'memused.mb': '16.64',
 'outcome': 'UNSAT',
 'propagations': '34791',
 'restarts': '1',
 'solver.msecs': 34,
 'task.msecs': 84}
