proyfinal/src/viki/013/experimentInOfficeAgust.take6.output/e93355d5-06b3-43dd-ae79-1ed6c140f196.als.out
Reading from standard input... Use '--help' for help.
============================[ Problem Statistics ]=============================
|                                                                             |
|  Number of variables:         69608                                         |
|  Number of clauses:          118081                                         |
|  Parse time:                   0.03 s                                       |
|                                                                             |
============================[ Search Statistics ]==============================
| Conflicts |          ORIGINAL         |          LEARNT          | Progress |
|           |    Vars  Clauses Literals |    Limit  Clauses Lit/Cl |          |
===============================================================================
===============================================================================
restarts              : 1
conflicts             : 37             (1058 /sec)
decisions             : 3172           (0.00 % random) (90735 /sec)
propagations          : 34791          (995194 /sec)
conflict literals     : 79             (2.47 % deleted)
Memory used           : 16.64 MB
CPU time              : 0.034959 s

UNSATISFIABLE
